\ENCODING=ISO-8859-1
\Problem name: inst_0_cut_n3

Maximize
 obj1: 24 x0 + 34 x1 + 15 x2 + 78 x3 + 9 x4 + 98 x5 + 93 x6 + 74 x7 + 94 x8
       + 54 x9 + 30 x10
Subject To
 c0:    40 x0 + 27 x1 + 44 x2 + 24 x3 + 94 x4 + 74 x5 + 68 x6 + 52 x7 + 99 x8
        + 79 x9 + 70 x10 + s0 <= 271
 c1:    15 x0 + 2 x1 + 19 x2 + 69 x3 + 86 x4 + 61 x5 + 41 x6 + 94 x7 + 20 x8
        + 74 x9 + 45 x10 + s1 <= 982
 c2:    x0 + 60 x1 + 98 x2 + 9 x3 + 25 x4 + 12 x5 + 69 x6 + 12 x7 + 80 x8
        + 70 x9 + 87 x10 + s2 <= 1006
 c3:    31 x0 + 87 x1 + 39 x2 + 32 x3 + 12 x4 + 58 x5 + 37 x6 + 2 x7 + 45 x8
        + 97 x9 + 5 x10 + s3 <= 620
 c4:    88 x0 + 12 x1 + 61 x2 + 61 x3 + 55 x4 + 14 x5 + 18 x6 + 39 x7 + 93 x8
        + 89 x9 + 14 x10 + s4 <= 840
 c5:    36 x0 + 11 x1 + 79 x2 + 32 x3 + 19 x4 + 46 x5 + 58 x6 + 82 x7 + 18 x8
        + 13 x9 + 62 x10 + s5 <= 300
 c6:    15 x0 + 44 x1 + 76 x2 + 18 x3 + 61 x4 + 19 x5 + 35 x6 + 64 x7 + 24 x8
        + 51 x9 + 76 x10 + s6 <= 293
 c7:    94 x0 + 44 x1 + 81 x2 + 12 x3 + 93 x4 + 23 x5 + 75 x6 + 82 x7 + 33 x8
        + 5 x9 + 81 x10 + s7 <= 788
 cut_1: x8 <= 2
 cut_2: 31 x0 + 21 x1 + 35 x2 + 19 x3 + 75 x4 + 59 x5 + 54 x6 + 41 x7 + 79 x8
        + 63 x9 + 55 x10 <= 216
 cut_3: 7 x0 + 5 x1 + 8 x2 + 4 x3 + 18 x4 + 14 x5 + 13 x6 + 9 x7 + 19 x8
        + 15 x9 + 13 x10 <= 52.0000000000001
Bounds
 0 <= x0 <= 1
 0 <= x1 <= 1
 0 <= x2 <= 1
 0 <= x3 <= 1
 0 <= x4 <= 1
 0 <= x5 <= 1
 0 <= x6 <= 1
 0 <= x7 <= 1
 0 <= x8 <= 1
 0 <= x9 <= 1
 0 <= x10 <= 1
End
